Selected objective sense:  MINIMIZE
Selected objective  name:  OBJ
Selected RHS        name:  RHS1
CPXPARAM_Preprocessing_Presolve                  0
CPXPARAM_LPMethod                                4
CPXPARAM_Threads                                 1
CPXPARAM_SolutionType                            2
CPXPARAM_TimeLimit                               3600
Tried aggregator 0 times.
DUAL formed by presolve
Reduced presolve eliminated 105 rows and 2193 columns.
Reduced LP has 8187 rows, 2095 columns, and 359645 nonzeros.
Presolve time = 0.08 sec. (97.26 ticks)
Parallel mode: none, using 1 thread for barrier

***NOTE: Found 52 dense columns.

Number of nonzeros in lower triangle of A*A' = 15155
Using Approximate Minimum Degree ordering
Total time for automatic ordering = 0.00 sec. (1.38 ticks)
Summary statistics for Cholesky factor:
  Rows in Factor            = 8239
  Integer space required    = 119944
  Total non-zeros in factor = 436393
  Total FP ops to factor    = 23572545
 Itn      Primal Obj        Dual Obj  Prim Inf Upper Inf  Dual Inf Inf Ratio
   0  -2.2483122e+06   8.4941858e+05  6.67e+06  5.71e+02  3.83e+05  1.00e+00
   1  -4.7500319e+05   8.9266505e+04  8.43e+05  7.23e+01  1.11e+05  1.70e-03
   2  -1.1512176e+05   1.2110297e+04  1.95e+05  1.67e+01  2.20e+04  9.79e-03
   3  -4.3797016e+04   5.2092259e+03  7.84e+04  6.71e+00  2.88e+03  9.39e-03
   4  -2.9115180e+04   3.8109025e+03  5.26e+04  4.50e+00  1.97e+03  1.23e-02
   5  -2.4684928e+04   3.4593361e+03  4.47e+04  3.83e+00  1.76e+03  1.42e-02
   6  -1.2104076e+04   1.3516819e+03  2.18e+04  1.87e+00  7.35e+02  2.99e-02
   7  -2.5689901e+03   1.0430123e+03  4.18e+03  3.58e-01  5.98e+02  4.30e-02
   8  -1.3517574e+03   3.8005582e+02  1.51e+03  1.29e-01  3.65e+02  8.42e-02
   9  -7.9559041e+02  -1.4657978e+02  6.34e+02  5.43e-02  1.16e+02  2.85e-01
  10  -5.8888806e+02  -3.5854781e+02  2.68e+02  2.29e-02  3.13e+01  5.42e+00
  11  -5.2503237e+02  -3.7896887e+02  1.79e+02  1.53e-02  1.41e+01  1.33e+01
  12  -4.4000721e+02  -3.8544741e+02  5.29e+01  4.53e-03  1.05e+01  1.98e+01
  13  -4.3020504e+02  -3.9119741e+02  3.07e+01  2.63e-03  8.59e+00  2.61e+01
  14  -4.2740107e+02  -3.9419118e+02  2.59e+01  2.22e-03  7.37e+00  3.20e+01
  15  -4.2180717e+02  -3.9773992e+02  1.54e+01  1.32e-03  6.02e+00  4.21e+01
  16  -4.1870191e+02  -4.0037525e+02  9.44e+00  8.09e-04  5.03e+00  5.35e+01
  17  -4.1623752e+02  -4.0349942e+02  4.86e+00  4.16e-04  3.85e+00  7.73e+01
  18  -4.1418938e+02  -4.0461573e+02  1.36e+00  1.17e-04  3.41e+00  9.07e+01
  19  -4.1381484e+02  -4.0614303e+02  7.13e-01  6.11e-05  2.82e+00  1.17e+02
  20  -4.1356434e+02  -4.0734596e+02  4.08e-01  3.49e-05  2.34e+00  1.51e+02
  21  -4.1324507e+02  -4.0840610e+02  1.55e-01  1.33e-05  1.90e+00  1.96e+02
  22  -4.1314596e+02  -4.0875116e+02  9.44e-02  8.08e-06  1.76e+00  2.17e+02
  23  -4.1305689e+02  -4.0955015e+02  3.96e-02  3.39e-06  1.43e+00  2.86e+02
  24  -4.1290051e+02  -4.1027583e+02  1.47e-02  1.26e-06  1.11e+00  3.81e+02
  25  -4.1286408e+02  -4.1068855e+02  8.97e-03  7.69e-07  9.30e-01  4.67e+02
  26  -4.1283897e+02  -4.1098350e+02  6.48e-03  5.55e-07  7.98e-01  5.52e+02
  27  -4.1280711e+02  -4.1150527e+02  3.59e-03  3.07e-07  5.65e-01  8.13e+02
  28  -4.1280273e+02  -4.1195253e+02  9.16e-04  7.85e-08  3.70e-01  1.45e+03
  29  -4.1278394e+02  -4.1244908e+02  3.88e-04  3.32e-08  1.45e-01  6.71e+03
  30  -4.1275696e+02  -4.1249438e+02  1.55e-04  1.33e-08  1.22e-01  8.35e+03
  31  -4.1274711e+02  -4.1260922e+02  7.79e-05  6.67e-09  6.46e-02  1.84e+04
  32  -4.1273715e+02  -4.1270042e+02  2.28e-05  1.96e-09  1.70e-02  9.78e+04
  33  -4.1273239e+02  -4.1272759e+02  4.65e-06  3.98e-10  1.98e-03  9.05e+05
  34  -4.1273143e+02  -4.1273078e+02  1.08e-06  9.24e-11  1.96e-04  1.30e+07
  35  -4.1273118e+02  -4.1273107e+02  1.08e-07  9.23e-12  4.09e-05  6.25e+07
  36  -4.1273115e+02  -4.1273114e+02  6.03e-09  5.18e-13  6.22e-06  4.11e+08
  37  -4.1273115e+02  -4.1273115e+02  3.02e-10  3.00e-14  3.12e-07  8.20e+09
Barrier time = 0.78 sec. (1071.03 ticks)

Total time on 1 threads = 0.78 sec. (1071.03 ticks)
Solve time: 0.783765913
Barrier iterations: 37
